(set-logic QF_S)
(declare-fun var0 () String)
(assert (str.in.re var0 (re.++ (re.+ (re.union (str.to.re "000") (str.to.re "111"))) (re.++ (re.union (re.+ (str.to.re "222")) (re.+ (str.to.re "333"))) (re.++ (re.+ (re.* (str.to.re "44"))) (re.++ (re.+ (re.+ (str.to.re "55"))) (re.++ (re.+ (re.* (str.to.re "666"))) (re.++ (re.* (re.union (str.to.re "7") (str.to.re "8"))) (re.++ (re.* (re.* (str.to.re "999"))) (re.++ (re.* (re.+ (str.to.re "aaa"))) (re.++ (re.+ (re.union (str.to.re "b") (str.to.re "c"))) (re.++ (re.* (re.union (str.to.re "dd") (str.to.re "eee"))) (re.++ (re.* (re.* (str.to.re "fff"))) (re.++ (re.+ (re.* (str.to.re "g"))) (re.++ (re.union (re.+ (str.to.re "hhh")) (re.+ (str.to.re "i"))) (re.++ (re.union (re.union (str.to.re "jj") (str.to.re "kkk")) (re.union (str.to.re "l") (str.to.re "m"))) (re.++ (re.+ (re.+ (str.to.re "nn"))) (re.++ (re.union (re.+ (str.to.re "ooo")) (re.+ (str.to.re "p"))) (re.++ (re.* (re.+ (str.to.re "qq"))) (re.++ (re.union (re.+ (str.to.re "rrr")) (re.+ (str.to.re "ss"))) (re.++ (re.+ (re.union (str.to.re "ttt") (str.to.re "uu"))) (re.++ (re.* (re.+ (str.to.re "vv"))) (re.++ (re.union (re.+ (str.to.re "www")) (re.+ (str.to.re "xx"))) (re.++ (re.* (re.+ (str.to.re "yy"))) (re.++ (re.+ (re.* (str.to.re "zz"))) (re.++ (re.* (re.* (str.to.re "AAA"))) (re.++ (re.* (re.union (str.to.re "B") (str.to.re "CCC"))) (re.++ (re.* (re.* (str.to.re "DDD"))) (re.++ (re.+ (re.* (str.to.re "E"))) (re.++ (re.* (re.* (str.to.re "FF"))) (re.++ (re.+ (re.union (str.to.re "G") (str.to.re "H"))) (re.++ (re.+ (re.* (str.to.re "III"))) (re.++ (re.+ (re.union (str.to.re "JJJ") (str.to.re "KK"))) (re.++ (re.* (re.* (str.to.re "LL"))) (re.++ (re.+ (re.+ (str.to.re "MMM"))) (re.++ (re.union (re.union (str.to.re "N") (str.to.re "OO")) (re.union (str.to.re "P") (str.to.re "QQ"))) (re.++ (re.* (re.union (str.to.re "R") (str.to.re "S"))) (re.union (re.+ (str.to.re "T")) (re.+ (str.to.re "U"))))))))))))))))))))))))))))))))))))))))
(check-sat)